5 6 2.2
3 3 1 147 2 123 3 145 2 4 140 2 130 2 4 150 5 160
3 2 1 214 3 150 2 3 87 2 66 2 5 178 6 95
3 2 1 87 2 62 2 3 180 4 105 3 4 190 5 100 6 153
3 2 1 87 2 65 1 5 173 2 4 145 6 136
3 3 2 123 3 145 1 128 3 3 86 4 65 5 47 2 5 110 6 85
0 4 6 8 14 12 10
10 0 3 5 11 9 7
12 15 0 3 9 7 9
14 17 15 0 7 9 11
8 11 9 7 0 3 5
6 9 7 9 15 0 3
4 7 9 11 17 15 0